
Gurobi 8.1.0 (win64, Python) logging started 01/28/19 15:17:34

Academic license - for non-commercial use only
Optimize a model with 3 rows, 2 columns and 4 nonzeros
Coefficient statistics:
  Matrix range     [1e+00, 3e+00]
  Objective range  [3e+00, 5e+00]
  Bounds range     [0e+00, 0e+00]
  RHS range        [4e+00, 2e+01]
Presolve removed 2 rows and 0 columns
Presolve time: 0.24s
Presolved: 1 rows, 2 columns, 2 nonzeros

Iteration    Objective       Primal Inf.    Dual Inf.      Time
       0    4.5000000e+01   1.500000e+00   0.000000e+00      0s
       1    3.6000000e+01   0.000000e+00   0.000000e+00      0s

Solved in 1 iterations and 0.32 seconds
Optimal objective  3.600000000e+01
Optimize a model with 3 rows, 2 columns and 4 nonzeros
Coefficient statistics:
  Matrix range     [1e+00, 3e+00]
  Objective range  [3e+00, 5e+00]
  Bounds range     [0e+00, 0e+00]
  RHS range        [4e+00, 2e+01]
Presolve removed 2 rows and 0 columns
Presolve time: 0.03s
Presolved: 1 rows, 2 columns, 2 nonzeros

Iteration    Objective       Primal Inf.    Dual Inf.      Time
       0    4.5000000e+01   1.500000e+00   0.000000e+00      0s
       1    3.6000000e+01   0.000000e+00   0.000000e+00      0s

Solved in 1 iterations and 0.05 seconds
Optimal objective  3.600000000e+01
Optimize a model with 3 rows, 2 columns and 4 nonzeros
Coefficient statistics:
  Matrix range     [1e+00, 3e+00]
  Objective range  [3e+00, 5e+00]
  Bounds range     [0e+00, 0e+00]
  RHS range        [4e+00, 2e+01]
Presolve removed 2 rows and 0 columns
Presolve time: 0.03s
Presolved: 1 rows, 2 columns, 2 nonzeros

Iteration    Objective       Primal Inf.    Dual Inf.      Time
       0    4.5000000e+01   1.500000e+00   0.000000e+00      0s
       1    3.6000000e+01   0.000000e+00   0.000000e+00      0s

Solved in 1 iterations and 0.05 seconds
Optimal objective  3.600000000e+01
Optimize a model with 3 rows, 2 columns and 4 nonzeros
Coefficient statistics:
  Matrix range     [1e+00, 3e+00]
  Objective range  [3e+00, 5e+00]
  Bounds range     [0e+00, 0e+00]
  RHS range        [4e+00, 2e+01]
Presolve removed 2 rows and 0 columns
Presolve time: 0.04s
Presolved: 1 rows, 2 columns, 2 nonzeros

Iteration    Objective       Primal Inf.    Dual Inf.      Time
       0    4.5000000e+01   1.500000e+00   0.000000e+00      0s
       1    3.6000000e+01   0.000000e+00   0.000000e+00      0s

Solved in 1 iterations and 0.05 seconds
Optimal objective  3.600000000e+01
Optimize a model with 3 rows, 2 columns and 4 nonzeros
Coefficient statistics:
  Matrix range     [1e+00, 3e+00]
  Objective range  [3e+00, 5e+00]
  Bounds range     [0e+00, 0e+00]
  RHS range        [4e+00, 2e+01]
Presolve removed 2 rows and 0 columns
Presolve time: 0.02s
Presolved: 1 rows, 2 columns, 2 nonzeros

Iteration    Objective       Primal Inf.    Dual Inf.      Time
       0    4.5000000e+01   1.500000e+00   0.000000e+00      0s
       1    3.6000000e+01   0.000000e+00   0.000000e+00      0s

Solved in 1 iterations and 0.04 seconds
Optimal objective  3.600000000e+01
Optimize a model with 3 rows, 2 columns and 4 nonzeros
Coefficient statistics:
  Matrix range     [1e+00, 3e+00]
  Objective range  [3e+00, 5e+00]
  Bounds range     [0e+00, 0e+00]
  RHS range        [4e+00, 2e+01]
Presolve removed 2 rows and 0 columns
Presolve time: 0.04s
Presolved: 1 rows, 2 columns, 2 nonzeros

Iteration    Objective       Primal Inf.    Dual Inf.      Time
       0    4.5000000e+01   1.500000e+00   0.000000e+00      0s
       1    3.6000000e+01   0.000000e+00   0.000000e+00      0s

Solved in 1 iterations and 0.05 seconds
Optimal objective  3.600000000e+01

Gurobi 8.1.0 (win64, Python) logging started 01/28/19 19:43:06

Academic license - for non-commercial use only
Optimize a model with 2 rows, 2 columns and 4 nonzeros
Coefficient statistics:
  Matrix range     [1e+00, 1e+00]
  Objective range  [1e+00, 1e+00]
  Bounds range     [0e+00, 0e+00]
  RHS range        [3e+00, 6e+00]
Presolve removed 2 rows and 2 columns
Presolve time: 0.01s
Presolve: All rows and columns removed
Iteration    Objective       Primal Inf.    Dual Inf.      Time
       0   -6.0000000e+00   0.000000e+00   0.000000e+00      0s

Solved in 0 iterations and 0.02 seconds
Optimal objective -6.000000000e+00

Gurobi 8.1.0 (win64, Python) logging started 01/28/19 20:57:52

Academic license - for non-commercial use only
Optimize a model with 1 rows, 5 columns and 5 nonzeros
Coefficient statistics:
  Matrix range     [2e+00, 6e+00]
  Objective range  [2e+00, 9e+00]
  Bounds range     [0e+00, 0e+00]
  RHS range        [9e+03, 9e+03]
Presolve removed 1 rows and 5 columns
Presolve time: 0.01s
Presolve: All rows and columns removed
Iteration    Objective       Primal Inf.    Dual Inf.      Time
       0    1.7149751e+04   0.000000e+00   0.000000e+00      0s

Solved in 0 iterations and 0.02 seconds
Optimal objective  1.714975124e+04
Optimize a model with 6 rows, 5 columns and 10 nonzeros
Coefficient statistics:
  Matrix range     [1e+00, 6e+00]
  Objective range  [2e+00, 9e+00]
  Bounds range     [0e+00, 0e+00]
  RHS range        [1e+03, 9e+03]
Presolve removed 5 rows and 0 columns
Presolve time: 0.01s
Presolved: 1 rows, 5 columns, 5 nonzeros

Iteration    Objective       Primal Inf.    Dual Inf.      Time
       0    2.7100000e+04   5.625000e+02   0.000000e+00      0s
       1    1.5356791e+04   0.000000e+00   0.000000e+00      0s

Solved in 1 iterations and 0.02 seconds
Optimal objective  1.535679090e+04

Gurobi 8.1.0 (win64, Python) logging started 02/19/19 09:45:04

Academic license - for non-commercial use only
Optimize a model with 3 rows, 2 columns and 4 nonzeros
Coefficient statistics:
  Matrix range     [1e+00, 3e+00]
  Objective range  [3e+00, 5e+00]
  Bounds range     [0e+00, 0e+00]
  RHS range        [4e+00, 2e+01]
Presolve removed 2 rows and 0 columns
Presolve time: 0.13s
Presolved: 1 rows, 2 columns, 2 nonzeros

Iteration    Objective       Primal Inf.    Dual Inf.      Time
       0    4.5000000e+01   1.500000e+00   0.000000e+00      0s
       1    3.6000000e+01   0.000000e+00   0.000000e+00      0s

Solved in 1 iterations and 0.24 seconds
Optimal objective  3.600000000e+01
Optimize a model with 3 rows, 2 columns and 4 nonzeros
Coefficient statistics:
  Matrix range     [1e+00, 3e+00]
  Objective range  [3e+00, 5e+00]
  Bounds range     [0e+00, 0e+00]
  RHS range        [4e+00, 2e+01]
Presolve removed 2 rows and 0 columns
Presolve time: 0.03s
Presolved: 1 rows, 2 columns, 2 nonzeros

Iteration    Objective       Primal Inf.    Dual Inf.      Time
       0    4.5000000e+01   1.500000e+00   0.000000e+00      0s
       1    3.6000000e+01   0.000000e+00   0.000000e+00      0s

Solved in 1 iterations and 0.05 seconds
Optimal objective  3.600000000e+01
